p cnf 38 103
a 23 7 0
e 1 2 3 4 5 6 8 9 10 11 12 13 14 15 16 17 18 19 20 21 22 24 25 26 27 28 29 30 31 32 33 34 35 36 37 38 0
-4 -2 0
-4 3 0
2 -3 4 0
1 4 -5 0
-1 -4 -5 0
1 -4 5 0
-1 4 5 0
6 7 -8 0
-6 -7 -8 0
6 -7 8 0
-6 7 8 0
9 5 0
9 8 0
-5 -8 -9 0
-12 -10 0
-12 -11 0
10 11 12 0
-9 -12 -13 0
9 12 -13 0
-9 12 13 0
9 -12 13 0
-7 -14 -15 0
7 14 -15 0
-7 14 15 0
7 -14 15 0
13 15 -16 0
-13 -15 -16 0
13 -15 16 0
-13 15 16 0
17 -5 0
17 1 0
5 -1 -17 0
-17 -18 0
17 -18 0
19 -2 0
19 18 0
2 -18 -19 0
1 -4 -20 0
-1 4 -20 0
1 4 20 0
-1 -4 20 0
-21 2 0
-21 -20 0
-2 20 21 0
22 -11 0
22 -21 0
11 21 -22 0
23 19 0
23 -22 0
-19 22 -23 0
-24 -16 0
-24 23 0
16 -23 24 0
-26 13 0
-26 25 0
-13 -25 26 0
-27 13 0
-27 13 0
-13 27 0
-26 -27 -28 0
26 27 -28 0
-26 27 28 0
26 -27 28 0
-24 -28 -29 0
24 28 -29 0
-24 28 29 0
24 -28 29 0
31 -2 0
31 30 0
2 -30 -31 0
-32 -31 0
-32 11 0
31 -11 32 0
33 2 0
33 6 0
-2 -6 -33 0
34 33 0
34 -31 0
-33 31 -34 0
-5 -17 -35 0
5 17 -35 0
-5 17 35 0
5 -17 35 0
-34 35 -36 0
34 -35 -36 0
-34 -35 36 0
34 35 36 0
37 -32 0
37 -36 0
32 36 -37 0
-38 29 0
-38 -37 0
-29 37 38 0
5 29 15 33 0
26 -25 31 -1 35 -29 -10 27 0
1 23 31 22 21 -38 0
-24 27 -35 -32 0
-32 35 -12 0
-19 1 0
-35 -20 -36 -26 -24 5 23 0
-32 31 -3 -17 33 21 0
1 -24 -2 0
38 0
